100
32
16
12
5
10
14
1
13
8
1
13
20
7
8
5
18
4
1
2
1
19
7
17
2
5
17
1
18
4
2
3
1
1
4
1
10
1
2
5
17
1
2
1
1
2
1
1
1
2
1
1
3
1
5
17
2
17
21
3
7
2
1
1
3
1
3
1
1
20
1
1
1
3
1
1
17
3
3
3
1
1
4
1
3
4
1
2
1
1
2
1
3
1
20
1
1
2
2
1
5
1